0 0 0 0
0 1 0 0
0 2 0 0
0 3 0 0
0 4 1 4
0 5 2 2
0 6 0 2
0 7 0 7
0 8 0 2
0 9 0 12
0 10 0 3
0 11 0 7
0 12 0 13
0 13 1 10
0 14 2 19
0 15 0 19
0 16 2 7
0 17 2 2
0 18 0 14
0 19 0 21
0 20 1 9
0 21 1 21
0 22 0 20
0 23 1 22
0 24 1 17
0 25 0 20
0 26 0 28
0 27 0 23
0 28 2 25
0 29 0 28
0 30 0 31
0 31 0 36
